benchmarks/VRPTW/TSPTW/solution/n20w120.002.txt.solution
1 2 15 19 5 9 20 17 12 16 6 8 4 21 18 13 11 10 7 3 14 
218
